computational_data/real_data/solutions/penguins_trial_010_margin.sol
Optimal - objective value 66.00804500
      0 c_0                         1                       1
      1 c_1                         1                       1
      2 c_2                         1                       1
      3 c_3                         1                       1
      4 c_4                         1                       1
      5 c_5                         1                       1
      6 c_6                         1                       1
      7 c_7                         1                       1
      8 c_8                         1                       1
      9 c_9                         1                       1
     10 c_10                        1                       1
     11 c_11                        1                       1
     12 c_12                        1                       1
     13 c_13                        1                       1
     14 c_14                        1                       1
     15 c_15                        1                       1
     16 c_16                        1                       1
     17 c_17                        1                       1
     18 c_18                        1                       1
     19 c_19                        1                       1
     20 c_20                        1                       1
     21 c_21                        1                       1
     22 c_22                        1                       1
     23 c_23                        1                       1
     24 c_24                        1                       1
     25 c_25                        1                       1
     26 c_26                        1                       1
     27 c_27                        1                       1
     28 c_28                        1                       1
     29 c_29                        1                       1
     30 c_30                        1                       1
     31 c_31                        1                       1
     32 c_32                        1                       1
     33 c_33                        1                       1
     34 c_34                        1                       1
     35 c_35                        1                       1
     36 c_36                        1                       1
     37 c_37                        1                       1
     38 c_38                        1                       1
     39 c_39                        1                       1
     40 c_40                        1                       1
     41 c_41                        1                       1
     42 c_42                        1                       1
     43 c_43                        1                       1
     44 c_44                        1                       1
     46 c_46                        1                       1
     47 c_47                        1                       1
     48 c_48                        1                       1
     49 c_49                        1                       1
     50 c_50                        1                       1
     51 c_51                        1                       1
     52 c_52                        1                       1
     53 c_53                        1                       1
     54 c_54                        1                       1
     55 c_55                        1                       1
     56 c_56                        1                       1
     57 c_57                        1                       1
     58 c_58                        1                       1
     59 c_59                        1                       1
     60 c_60                        1                       1
     61 c_61                        1                       1
     62 c_62                        1                       1
     63 c_63                        1                       1
     64 c_64                        1                       1
     65 c_65                        1                       1
     66 c_66                        1                       1
     71 r_4                         1                   0.001
     77 r_10                        1                0.000881
     83 b_0                         1                   0.001
     91 b_8                         1                 0.00094
     92 b_9                         1                0.000925
     94 b_11                        1                0.000881
     96 b_13                        1                0.000821
     97 b_14                        1                0.000806
     98 b_15                        1                0.000791
